
Log started (V11.0.0) Mon Apr 14 20:40:24 2008

Tried aggregator 1 time.
Reduced MIP has 550 rows, 25001 columns, and 50050 nonzeros.
Presolve time =    0.28 sec.
Clique table members: 500.
MIP emphasis: balance optimality and feasibility.
MIP search method: dynamic search.
Parallel mode: none, using 1 thread.
Root relaxation solution time =    0.87 sec.

        Nodes                                         Cuts/
   Node  Left     Objective  IInf  Best Integer     Best Node    ItCnt     Gap

*     0+    0                        25294.0000       25.7354     1342   99.90%
*     0+    0                           33.0000       25.7354     1342   22.01%
      0     0       26.0000    68       33.0000      Fract: 6     1350   21.21%
*     0+    0                           31.0000       26.0000     1350   16.13%
*     0+    0                           30.0000       26.0000     1350   13.33%
*     0+    0                           29.0000       26.0000     1350   10.34%
*     0+    0                           28.0000       26.0000     1350    7.14%

Repeating presolve.
Tried aggregator 1 time.
MIP Presolve eliminated 0 rows and 18277 columns.
Reduced MIP has 550 rows, 6724 columns, and 13496 nonzeros.
Tried aggregator 1 time.
Represolve time =    0.38 sec.
Clique table members: 1064.
MIP emphasis: balance optimality and feasibility.
MIP search method: dynamic search.
Parallel mode: none, using 1 thread.
Root relaxation solution time =    0.17 sec.

        Nodes                                         Cuts/
   Node  Left     Objective  IInf  Best Integer     Best Node    ItCnt     Gap

      0     0       26.0000    75       28.0000       26.0000     1014    7.14%
      0     2       26.0000    75       28.0000       26.0000     1014    7.14%
    100    87       27.0000    71       28.0000       26.0000     9765    7.14%
    200   172       27.0000    56       28.0000       26.0000    16601    7.14%
    300   270       27.0000    52       28.0000       26.0000    20226    7.14%
    400   354       27.0000    63       28.0000       26.0000    29622    7.14%
    500   417       27.0000    97       28.0000       26.0000    45721    7.14%
    600   455       27.0000    61       28.0000       26.0000    51330    7.14%
    700   464       26.0000   104       28.0000       26.0000    59392    7.14%
    800   492       27.0000    70       28.0000       26.0000    65083    7.14%
    900   499       27.0000    81       28.0000       26.0000    73449    7.14%
   1000   511       27.0000    73       28.0000       26.0000    81162    7.14%
Elapsed time =  59.86 sec. (tree size =  5.10 MB, solutions = 6)
   1100   541       27.0000    31       28.0000       26.0000    87628    7.14%
   1200   637       27.0000    76       28.0000       26.0000    96344    7.14%
   1300   733       27.0000    83       28.0000       26.0000   106431    7.14%
   1400   830       27.0000    66       28.0000       26.0000   112661    7.14%
   1500   926       27.0000    69       28.0000       26.0000   121487    7.14%
   1600  1016       27.0000    50       28.0000       26.0000   129236    7.14%
   1700  1105       27.0000    35       28.0000       26.0000   136645    7.14%
   1800  1203       27.0000    54       28.0000       26.0000   142202    7.14%
   1900  1288       27.0000    56       28.0000       26.0000   154368    7.14%
*  1944+  147                           27.0000       26.0000   158210    3.70%
   2000   161       26.0000   133       27.0000       26.0000   187077    3.70%
Elapsed time = 115.34 sec. (tree size =  1.83 MB, solutions = 7)
   2100   237       26.0000   141       27.0000       26.0000   205722    3.70%
   2200   267       26.0000   112       27.0000       26.0000   286590    3.70%
   2300   343    infeasible             27.0000       26.0000   308898    3.70%
   2400   411       26.0000   100       27.0000       26.0000   337864    3.70%
*  2414+    1                           26.0000       26.0000   339743    0.00%

Cover cuts applied:  720
Mixed integer rounding cuts applied:  16
Gomory fractional cuts applied:  8

Solution pool: 8 solutions saved.

MIP - Integer optimal solution:  Objective = 2.6000000000e+001
Solution time =  211.66 sec.  Iterations = 339743  Nodes = 2414


Incumbent solution
Variable Name           Solution Value
Cmax                         26.000000
X_1_43                        1.000000
X_2_31                        1.000000
X_3_15                        1.000000
X_4_25                        1.000000
X_5_2                         1.000000
X_6_1                         1.000000
X_7_20                        1.000000
X_8_34                        1.000000
X_9_40                        1.000000
X_10_38                       1.000000
X_11_8                        1.000000
X_12_27                       1.000000
X_13_26                       1.000000
X_14_25                       1.000000
X_15_45                       1.000000
X_16_14                       1.000000
X_17_39                       1.000000
X_18_3                        1.000000
X_19_46                       1.000000
X_20_17                       1.000000
X_21_47                       1.000000
X_22_28                       1.000000
X_23_14                       1.000000
X_24_13                       1.000000
X_25_7                        1.000000
X_26_47                       1.000000
X_27_31                       1.000000
X_28_35                       1.000000
X_29_5                        1.000000
X_30_40                       1.000000
X_31_46                       1.000000
X_32_47                       1.000000
X_33_2                        1.000000
X_34_7                        1.000000
X_35_10                       1.000000
X_36_12                       1.000000
X_37_37                       1.000000
X_38_40                       1.000000
X_39_38                       1.000000
X_40_40                       1.000000
X_41_35                       1.000000
X_42_18                       1.000000
X_43_48                       1.000000
X_44_42                       1.000000
X_45_29                       1.000000
X_46_22                       1.000000
X_47_19                       1.000000
X_48_49                       1.000000
X_49_19                       1.000000
X_50_26                       1.000000
X_51_22                       1.000000
X_52_11                       1.000000
X_53_15                       1.000000
X_54_17                       1.000000
X_55_37                       1.000000
X_56_18                       1.000000
X_57_44                       1.000000
X_58_30                       1.000000
X_59_20                       1.000000
X_60_42                       1.000000
X_61_18                       1.000000
X_62_6                        1.000000
X_63_18                       1.000000
X_64_36                       1.000000
X_65_42                       1.000000
X_66_47                       1.000000
X_67_27                       1.000000
X_68_29                       1.000000
X_69_32                       1.000000
X_70_30                       1.000000
X_71_21                       1.000000
X_72_25                       1.000000
X_73_8                        1.000000
X_74_10                       1.000000
X_75_46                       1.000000
X_76_29                       1.000000
X_77_20                       1.000000
X_78_34                       1.000000
X_79_46                       1.000000
X_80_18                       1.000000
X_81_23                       1.000000
X_82_8                        1.000000
X_83_16                       1.000000
X_84_41                       1.000000
X_85_21                       1.000000
X_86_22                       1.000000
X_87_3                        1.000000
X_88_24                       1.000000
X_89_40                       1.000000
X_90_49                       1.000000
X_91_10                       1.000000
X_92_20                       1.000000
X_93_41                       1.000000
X_94_42                       1.000000
X_95_12                       1.000000
X_96_6                        1.000000
X_97_4                        1.000000
X_98_37                       1.000000
X_99_26                       1.000000
X_100_14                      1.000000
X_101_39                      1.000000
X_102_36                      1.000000
X_103_46                      1.000000
X_104_12                      1.000000
X_105_48                      1.000000
X_106_42                      1.000000
X_107_20                      1.000000
X_108_4                       1.000000
X_109_5                       1.000000
X_110_38                      1.000000
X_111_40                      1.000000
X_112_1                       1.000000
X_113_41                      1.000000
X_114_15                      1.000000
X_115_41                      1.000000
X_116_11                      1.000000
X_117_32                      1.000000
X_118_10                      1.000000
X_119_6                       1.000000
X_120_22                      1.000000
X_121_44                      1.000000
X_122_32                      1.000000
X_123_22                      1.000000
X_124_47                      1.000000
X_125_15                      1.000000
X_126_36                      1.000000
X_127_19                      1.000000
X_128_1                       1.000000
X_129_1                       1.000000
X_130_22                      1.000000
X_131_28                      1.000000
X_132_17                      1.000000
X_133_19                      1.000000
X_134_30                      1.000000
X_135_23                      1.000000
X_136_14                      1.000000
X_137_2                       1.000000
X_138_13                      1.000000
X_139_34                      1.000000
X_140_6                       1.000000
X_141_25                      1.000000
X_142_43                      1.000000
X_143_6                       1.000000
X_144_10                      1.000000
X_145_31                      1.000000
X_146_18                      1.000000
X_147_11                      1.000000
X_148_3                       1.000000
X_149_41                      1.000000
X_150_2                       1.000000
X_151_9                       1.000000
X_152_33                      1.000000
X_153_10                      1.000000
X_154_42                      1.000000
X_155_20                      1.000000
X_156_12                      1.000000
X_157_27                      1.000000
X_158_48                      1.000000
X_159_3                       1.000000
X_160_4                       1.000000
X_161_35                      1.000000
X_162_29                      1.000000
X_163_14                      1.000000
X_164_35                      1.000000
X_165_1                       1.000000
X_166_48                      1.000000
X_167_32                      1.000000
X_168_19                      1.000000
X_169_28                      1.000000
X_170_26                      1.000000
X_171_41                      1.000000
X_172_36                      1.000000
X_173_21                      1.000000
X_174_23                      1.000000
X_175_4                       1.000000
X_176_27                      1.000000
X_177_32                      1.000000
X_178_11                      1.000000
X_179_24                      1.000000
X_180_39                      1.000000
X_181_15                      1.000000
X_182_44                      1.000000
X_183_42                      1.000000
X_184_4                       1.000000
X_185_22                      1.000000
X_186_33                      1.000000
X_187_32                      1.000000
X_188_8                       1.000000
X_189_6                       1.000000
X_190_2                       1.000000
X_191_2                       1.000000
X_192_33                      1.000000
X_193_29                      1.000000
X_194_40                      1.000000
X_195_32                      1.000000
X_196_7                       1.000000
X_197_26                      1.000000
X_198_33                      1.000000
X_199_21                      1.000000
X_200_39                      1.000000
X_201_50                      1.000000
X_202_26                      1.000000
X_203_31                      1.000000
X_204_9                       1.000000
X_205_35                      1.000000
X_206_31                      1.000000
X_207_10                      1.000000
X_208_43                      1.000000
X_209_32                      1.000000
X_210_43                      1.000000
X_211_41                      1.000000
X_212_48                      1.000000
X_213_35                      1.000000
X_214_44                      1.000000
X_215_20                      1.000000
X_216_50                      1.000000
X_217_36                      1.000000
X_218_34                      1.000000
X_219_18                      1.000000
X_220_48                      1.000000
X_221_33                      1.000000
X_222_32                      1.000000
X_223_18                      1.000000
X_224_24                      1.000000
X_225_7                       1.000000
X_226_1                       1.000000
X_227_48                      1.000000
X_228_5                       1.000000
X_229_34                      1.000000
X_230_5                       1.000000
X_231_6                       1.000000
X_232_30                      1.000000
X_233_25                      1.000000
X_234_48                      1.000000
X_235_40                      1.000000
X_236_36                      1.000000
X_237_25                      1.000000
X_238_30                      1.000000
X_239_17                      1.000000
X_240_6                       1.000000
X_241_44                      1.000000
X_242_15                      1.000000
X_243_27                      1.000000
X_244_36                      1.000000
X_245_49                      1.000000
X_246_50                      1.000000
X_247_40                      1.000000
X_248_25                      1.000000
X_249_7                       1.000000
X_250_4                       1.000000
X_251_13                      1.000000
X_252_44                      1.000000
X_253_47                      1.000000
X_254_22                      1.000000
X_255_11                      1.000000
X_256_22                      1.000000
X_257_27                      1.000000
X_258_21                      1.000000
X_259_1                       1.000000
X_260_40                      1.000000
X_261_38                      1.000000
X_262_10                      1.000000
X_263_50                      1.000000
X_264_15                      1.000000
X_265_29                      1.000000
X_266_33                      1.000000
X_267_33                      1.000000
X_268_16                      1.000000
X_269_25                      1.000000
X_270_15                      1.000000
X_271_48                      1.000000
X_272_25                      1.000000
X_273_49                      1.000000
X_274_23                      1.000000
X_275_17                      1.000000
X_276_11                      1.000000
X_277_39                      1.000000
X_278_22                      1.000000
X_279_43                      1.000000
X_280_13                      1.000000
X_281_49                      1.000000
X_282_31                      1.000000
X_283_40                      1.000000
X_284_29                      1.000000
X_285_30                      1.000000
X_286_40                      1.000000
X_287_45                      1.000000
X_288_22                      1.000000
X_289_10                      1.000000
X_290_44                      1.000000
X_291_46                      1.000000
X_292_3                       1.000000
X_293_40                      1.000000
X_294_11                      1.000000
X_295_11                      1.000000
X_296_26                      1.000000
X_297_34                      1.000000
X_298_49                      1.000000
X_299_43                      1.000000
X_300_37                      1.000000
X_301_24                      1.000000
X_302_1                       1.000000
X_303_31                      1.000000
X_304_49                      1.000000
X_305_44                      1.000000
X_306_12                      1.000000
X_307_31                      1.000000
X_308_16                      1.000000
X_309_10                      1.000000
X_310_1                       1.000000
X_311_18                      1.000000
X_312_10                      1.000000
X_313_41                      1.000000
X_314_18                      1.000000
X_315_41                      1.000000
X_316_30                      1.000000
X_317_4                       1.000000
X_318_21                      1.000000
X_319_38                      1.000000
X_320_14                      1.000000
X_321_39                      1.000000
X_322_10                      1.000000
X_323_8                       1.000000
X_324_48                      1.000000
X_325_29                      1.000000
X_326_30                      1.000000
X_327_2                       1.000000
X_328_35                      1.000000
X_329_13                      1.000000
X_330_12                      1.000000
X_331_28                      1.000000
X_332_48                      1.000000
X_333_50                      1.000000
X_334_42                      1.000000
X_335_42                      1.000000
X_336_35                      1.000000
X_337_41                      1.000000
X_338_6                       1.000000
X_339_29                      1.000000
X_340_50                      1.000000
X_341_39                      1.000000
X_342_32                      1.000000
X_343_29                      1.000000
X_344_34                      1.000000
X_345_3                       1.000000
X_346_48                      1.000000
X_347_26                      1.000000
X_348_20                      1.000000
X_349_9                       1.000000
X_350_42                      1.000000
X_351_36                      1.000000
X_352_28                      1.000000
X_353_32                      1.000000
X_354_24                      1.000000
X_355_23                      1.000000
X_356_12                      1.000000
X_357_13                      1.000000
X_358_16                      1.000000
X_359_20                      1.000000
X_360_38                      1.000000
X_361_15                      1.000000
X_362_43                      1.000000
X_363_47                      1.000000
X_364_1                       1.000000
X_365_16                      1.000000
X_366_21                      1.000000
X_367_35                      1.000000
X_368_11                      1.000000
X_369_35                      1.000000
X_370_20                      1.000000
X_371_37                      1.000000
X_372_45                      1.000000
X_373_30                      1.000000
X_374_16                      1.000000
X_375_36                      1.000000
X_376_1                       1.000000
X_377_2                       1.000000
X_378_17                      1.000000
X_379_20                      1.000000
X_380_26                      1.000000
X_381_50                      1.000000
X_382_38                      1.000000
X_383_1                       1.000000
X_384_35                      1.000000
X_385_9                       1.000000
X_386_45                      1.000000
X_387_32                      1.000000
X_388_26                      1.000000
X_389_21                      1.000000
X_390_8                       1.000000
X_391_6                       1.000000
X_392_36                      1.000000
X_393_37                      1.000000
X_394_45                      1.000000
X_395_24                      1.000000
X_396_3                       1.000000
X_397_31                      1.000000
X_398_18                      1.000000
X_399_11                      1.000000
X_400_28                      1.000000
X_401_14                      1.000000
X_402_43                      1.000000
X_403_22                      1.000000
X_404_5                       1.000000
X_405_18                      1.000000
X_406_14                      1.000000
X_407_41                      1.000000
X_408_23                      1.000000
X_409_19                      1.000000
X_410_49                      1.000000
X_411_33                      1.000000
X_412_5                       1.000000
X_413_23                      1.000000
X_414_23                      1.000000
X_415_40                      1.000000
X_416_32                      1.000000
X_417_43                      1.000000
X_418_19                      1.000000
X_419_28                      1.000000
X_420_43                      1.000000
X_421_50                      1.000000
X_422_9                       1.000000
X_423_39                      1.000000
X_424_41                      1.000000
X_425_25                      1.000000
X_426_42                      1.000000
X_427_9                       1.000000
X_428_6                       1.000000
X_429_47                      1.000000
X_430_7                       1.000000
X_431_29                      1.000000
X_432_46                      1.000000
X_433_14                      1.000000
X_434_33                      1.000000
X_435_14                      1.000000
X_436_34                      1.000000
X_437_19                      1.000000
X_438_10                      1.000000
X_439_8                       1.000000
X_440_12                      1.000000
X_441_35                      1.000000
X_442_23                      1.000000
X_443_26                      1.000000
X_444_24                      1.000000
X_445_13                      1.000000
X_446_6                       1.000000
X_447_45                      1.000000
X_448_50                      1.000000
X_449_24                      1.000000
X_450_6                       1.000000
X_451_15                      1.000000
X_452_44                      1.000000
X_453_3                       1.000000
X_454_38                      1.000000
X_455_26                      1.000000
X_456_8                       1.000000
X_457_31                      1.000000
X_458_33                      1.000000
X_459_19                      1.000000
X_460_13                      1.000000
X_461_22                      1.000000
X_462_36                      1.000000
X_463_19                      1.000000
X_464_30                      1.000000
X_465_18                      1.000000
X_466_36                      1.000000
X_467_15                      1.000000
X_468_43                      1.000000
X_469_18                      1.000000
X_470_33                      1.000000
X_471_50                      1.000000
X_472_16                      1.000000
X_473_43                      1.000000
X_474_45                      1.000000
X_475_4                       1.000000
X_476_20                      1.000000
X_477_41                      1.000000
X_478_45                      1.000000
X_479_18                      1.000000
X_480_31                      1.000000
X_481_30                      1.000000
X_482_41                      1.000000
X_483_20                      1.000000
X_484_5                       1.000000
X_485_27                      1.000000
X_486_5                       1.000000
X_487_42                      1.000000
X_488_43                      1.000000
X_489_5                       1.000000
X_490_15                      1.000000
X_491_39                      1.000000
X_492_38                      1.000000
X_493_44                      1.000000
X_494_8                       1.000000
X_495_17                      1.000000
X_496_9                       1.000000
X_497_24                      1.000000
X_498_43                      1.000000
X_499_27                      1.000000
X_500_16                      1.000000
All other variables in the range 1-25001 are 0.
